
  22   10
  10   10   10   10   10   10   10   10   10   10

   0   0   0   0   0   0   0   0   0   0   0   7 2 4 5 6 9 12 13 
   8  10  10  10  10  10  10  10  10  10  10   3 16 7 3 
   7  10  10  10  10  10  10  10  10  10  10   4 21 18 15 8 
   7  10  10  10  10  10  10  10  10  10  10   4 18 16 15 11 
   7  10  10  10  10  10  10  10  10  10  10   4 18 16 15 11 
   9  10  10  10  10  10  10  10  10  10  10   3 17 15 10 
   5  10  10  10  10  10  10  10  10  10  10   4 20 17 15 14 
   7  10  10  10  10  10  10  10  10  10  10   2 19 10 
   7  10  10  10  10  10  10  10  10  10  10   3 17 16 14 
   9  10  10  10  10  10  10  10  10  10  10   1 11 
   6  10  10  10  10  10  10  10  10  10  10   1 14 
   2  10  10  10  10  10  10  10  10  10  10   1 15 
   3  10  10  10  10  10  10  10  10  10  10   1 15 
   9  10  10  10  10  10  10  10  10  10  10   1 22
  10  10  10  10  10  10  10  10  10  10  10   1 22
   6  10  10  10  10  10  10  10  10  10  10   1 22
  10  10  10  10  10  10  10  10  10  10  10   1 22
   5  10  10  10  10  10  10  10  10  10  10   1 22
   6  10  10  10  10  10  10  10  10  10  10   1 22
   7  10  10  10  10  10  10  10  10  10  10   1 22
  10  10  10  10  10  10  10  10  10  10  10   1 22
   0   0   0   0   0   0   0   0   0   0   0   0 
